certificates/rado_a9_c86_N25.cnf
c Rad2 upper bound instance: x1 + 9*x2 - x3 = 86, interval [1,25]
p cnf 25 136
1 5 10 0
-1 -5 -10 0
1 11 14 0
-1 -11 -14 0
1 12 23 0
-1 -12 -23 0
2 6 10 0
-2 -6 -10 0
2 11 15 0
-2 -11 -15 0
2 12 24 0
-2 -12 -24 0
3 7 10 0
-3 -7 -10 0
3 11 16 0
-3 -11 -16 0
3 12 25 0
-3 -12 -25 0
4 8 10 0
-4 -8 -10 0
4 11 17 0
-4 -11 -17 0
5 9 10 0
-5 -9 -10 0
5 11 18 0
-5 -11 -18 0
1 6 9 0
-1 -6 -9 0
6 10 0
-6 -10 0
6 11 19 0
-6 -11 -19 0
2 7 9 0
-2 -7 -9 0
7 10 11 0
-7 -10 -11 0
7 11 20 0
-7 -11 -20 0
3 8 9 0
-3 -8 -9 0
8 10 12 0
-8 -10 -12 0
8 11 21 0
-8 -11 -21 0
4 9 0
-4 -9 0
9 10 13 0
-9 -10 -13 0
9 11 22 0
-9 -11 -22 0
10 14 0
-10 -14 0
10 11 23 0
-10 -11 -23 0
6 9 11 0
-6 -9 -11 0
10 11 15 0
-10 -11 -15 0
11 24 0
-11 -24 0
7 9 12 0
-7 -9 -12 0
10 12 16 0
-10 -12 -16 0
11 12 25 0
-11 -12 -25 0
8 9 13 0
-8 -9 -13 0
10 13 17 0
-10 -13 -17 0
9 14 0
-9 -14 0
10 14 18 0
-10 -14 -18 0
1 8 15 0
-1 -8 -15 0
9 10 15 0
-9 -10 -15 0
10 15 19 0
-10 -15 -19 0
2 8 16 0
-2 -8 -16 0
9 11 16 0
-9 -11 -16 0
10 16 20 0
-10 -16 -20 0
3 8 17 0
-3 -8 -17 0
9 12 17 0
-9 -12 -17 0
10 17 21 0
-10 -17 -21 0
4 8 18 0
-4 -8 -18 0
9 13 18 0
-9 -13 -18 0
10 18 22 0
-10 -18 -22 0
5 8 19 0
-5 -8 -19 0
9 14 19 0
-9 -14 -19 0
10 19 23 0
-10 -19 -23 0
6 8 20 0
-6 -8 -20 0
9 15 20 0
-9 -15 -20 0
10 20 24 0
-10 -20 -24 0
7 8 21 0
-7 -8 -21 0
9 16 21 0
-9 -16 -21 0
10 21 25 0
-10 -21 -25 0
8 22 0
-8 -22 0
9 17 22 0
-9 -17 -22 0
8 9 23 0
-8 -9 -23 0
9 18 23 0
-9 -18 -23 0
1 7 24 0
-1 -7 -24 0
8 10 24 0
-8 -10 -24 0
9 19 24 0
-9 -19 -24 0
2 7 25 0
-2 -7 -25 0
8 11 25 0
-8 -11 -25 0
9 20 25 0
-9 -20 -25 0
