certificates/rado_a9_c86_N25.drat
8 11 -25 0
-24 -25 0
-25 0
-22 24 0
-8 -11 0
d -8 -21 -11 0
24 0
-11 0
12 0
8 0
-2 0
-10 0
-22 0
7 0
15 0
6 0
14 0
21 0
18 0
23 0
9 0
-1 0
0
